% demand
num_movements = 43;
loading_factor = [1050, 1900, 1450, 1250, 1500, 850, 1050, 1750, 1250, 1100, 800, 950, 1750, 1000, 1200, 1250, 1600, 1750, 1050, 1000, 1350, 1850, 1550, 900, 850, 1650, 1050, 1600, 900, 1300, 1700, 2000, 950, 1900, 1250, 1150, 1150, 1450, 1400, 1550, 1500, 1800, 950];
pickup_time = [0, 0, 0, 0, 1, 1, 1, 1, 1, 2, 2, 2, 2, 2, 2, 2, 3, 3, 3, 3, 5, 5, 6, 6, 6, 6, 6, 7, 7, 8, 8, 8, 8, 8, 10, 10, 11, 12, 12, 12, 12, 12, 12];
delivery_time = [2, 1, 2, 2, 2, 2, 2, 2, 2, 3, 4, 5, 3, 5, 5, 5, 5, 5, 5, 5, 7, 6, 12, 7, 7, 8, 7, 9, 8, 10, 9, 9, 12, 12, 12, 12, 12, 13, 13, 13, 13, 13, 13];

% transporter definition
total_capacity = 11000;
num_decks = 4;
capacity = [3000, 3000, 1000, 4000];

% ways out of decks
num_ways_out = 2;
paths_out = array3d(decks, ways_out, decks, [
% ways out of deck d1
2, 4, 0, 0, 3, 4, 0, 0, 

% ways out of deck d2
4, 0, 0, 0, 0, 0, 0, 0,	

% ways out of deck d3
4, 0, 0, 0, 0, 0, 0, 0,	

% ways out of deck d4
0, 0, 0, 0,	0, 0, 0, 0,	

]);

